38 24
16 657
14 4
20 334
23 403
2 801
5 424
21 514
19 729
19 852
23 907
7 188
18 169
16 777
16 961
10 108
2 609
12 445
10 796
7 94
5 876
9 184
7 143
12 912
5 992
20 746
19 849
16 44
13 913
12 832
2 567
20 31
22 582
14 940
16 579
11 939
12 657
20 729
19 481
